HUN,8,6,14
0,5,2,26,5,19,1,18,3,12,4,2
0,20,5,30,2,18,3,9,4,8,1,12
3,16,4,15,2,29,1,17,0,23,5,18
4,19,2,27,3,14,0,8,1,22,5,30
4,17,5,13,2,30,0,26,1,17,3,27
3,27,2,29,1,3,4,9,5,7,0,29
1,16,4,15,0,11,2,5,3,2,5,5
1,27,4,18,3,1,0,21,2,12,5,29
